certificates/rado_a7_c192_N28.cnf
c Rad2 upper bound instance: x1 + 7*x2 - x3 = 192, interval [1,28]
p cnf 28 164
1 5 28 0
-1 -5 -28 0
2 6 28 0
-2 -6 -28 0
3 7 28 0
-3 -7 -28 0
1 4 27 0
-1 -4 -27 0
4 8 28 0
-4 -8 -28 0
2 5 27 0
-2 -5 -27 0
5 9 28 0
-5 -9 -28 0
3 6 27 0
-3 -6 -27 0
6 10 28 0
-6 -10 -28 0
4 7 27 0
-4 -7 -27 0
7 11 28 0
-7 -11 -28 0
5 8 27 0
-5 -8 -27 0
8 12 28 0
-8 -12 -28 0
6 9 27 0
-6 -9 -27 0
9 13 28 0
-9 -13 -28 0
7 10 27 0
-7 -10 -27 0
10 14 28 0
-10 -14 -28 0
1 11 26 0
-1 -11 -26 0
8 11 27 0
-8 -11 -27 0
11 15 28 0
-11 -15 -28 0
2 12 26 0
-2 -12 -26 0
9 12 27 0
-9 -12 -27 0
12 16 28 0
-12 -16 -28 0
3 13 26 0
-3 -13 -26 0
10 13 27 0
-10 -13 -27 0
13 17 28 0
-13 -17 -28 0
4 14 26 0
-4 -14 -26 0
11 14 27 0
-11 -14 -27 0
14 18 28 0
-14 -18 -28 0
5 15 26 0
-5 -15 -26 0
12 15 27 0
-12 -15 -27 0
15 19 28 0
-15 -19 -28 0
6 16 26 0
-6 -16 -26 0
13 16 27 0
-13 -16 -27 0
16 20 28 0
-16 -20 -28 0
7 17 26 0
-7 -17 -26 0
14 17 27 0
-14 -17 -27 0
17 21 28 0
-17 -21 -28 0
1 18 25 0
-1 -18 -25 0
8 18 26 0
-8 -18 -26 0
15 18 27 0
-15 -18 -27 0
18 22 28 0
-18 -22 -28 0
2 19 25 0
-2 -19 -25 0
9 19 26 0
-9 -19 -26 0
16 19 27 0
-16 -19 -27 0
19 23 28 0
-19 -23 -28 0
3 20 25 0
-3 -20 -25 0
10 20 26 0
-10 -20 -26 0
17 20 27 0
-17 -20 -27 0
20 24 28 0
-20 -24 -28 0
4 21 25 0
-4 -21 -25 0
11 21 26 0
-11 -21 -26 0
18 21 27 0
-18 -21 -27 0
21 25 28 0
-21 -25 -28 0
5 22 25 0
-5 -22 -25 0
12 22 26 0
-12 -22 -26 0
19 22 27 0
-19 -22 -27 0
22 26 28 0
-22 -26 -28 0
6 23 25 0
-6 -23 -25 0
13 23 26 0
-13 -23 -26 0
20 23 27 0
-20 -23 -27 0
23 27 28 0
-23 -27 -28 0
7 24 25 0
-7 -24 -25 0
14 24 26 0
-14 -24 -26 0
21 24 27 0
-21 -24 -27 0
24 28 0
-24 -28 0
1 24 25 0
-1 -24 -25 0
8 25 0
-8 -25 0
15 25 26 0
-15 -25 -26 0
22 25 27 0
-22 -25 -27 0
2 24 26 0
-2 -24 -26 0
9 25 26 0
-9 -25 -26 0
16 26 0
-16 -26 0
23 26 27 0
-23 -26 -27 0
3 24 27 0
-3 -24 -27 0
10 25 27 0
-10 -25 -27 0
17 26 27 0
-17 -26 -27 0
24 27 0
-24 -27 0
4 24 28 0
-4 -24 -28 0
11 25 28 0
-11 -25 -28 0
18 26 28 0
-18 -26 -28 0
25 27 28 0
-25 -27 -28 0
