certificates/rado_a7_c192_N28.drat
-28 0
24 0
-27 0
23 0
25 0
-6 0
-8 0
-1 0
-7 0
2 0
3 0
10 0
9 0
4 0
5 0
12 0
11 0
-26 0
-19 0
-20 0
-21 0
-22 0
0
